TYPE : TSP
DIMENSION : 26
EDGE_WEIGHT_TYPE : EUC_2D
NODE_COORD_SECTION
1 6.51190e+02 2.24439e+03
2 6.76600e+02 2.16820e+03
3 7.01990e+02 2.16820e+03
4 7.27400e+02 2.16820e+03
5 7.52790e+02 2.16820e+03
6 7.27400e+02 2.14279e+03
7 7.01990e+02 2.14279e+03
8 6.76600e+02 2.14279e+03
9 6.51190e+02 2.14279e+03
10 6.25800e+02 2.14279e+03
11 6.00390e+02 2.14279e+03
12 5.75000e+02 2.14279e+03
13 6.00390e+02 2.06660e+03
14 6.25800e+02 2.06660e+03
15 6.51190e+02 2.06660e+03
16 6.76600e+02 2.06660e+03
17 7.01990e+02 2.06660e+03
18 7.27400e+02 2.06660e+03
19 7.27400e+02 2.01580e+03
20 7.01990e+02 2.01580e+03
21 6.76600e+02 2.01580e+03
22 6.51190e+02 2.01580e+03
23 6.25800e+02 2.01580e+03
24 6.00390e+02 2.01580e+03
25 5.75000e+02 2.01580e+03
26 6.00390e+02 1.93961e+03
EOF